### Garnet LiLaZrO - Bush+Woodley rigid ion potential
units           metal
atom_style      charge
boundary        p p p
read_data	LLZ.lmp

group		La type 1
group		Zr type 2
group		O  type 3
group		Li type 4
set		group La charge 3.00
mass		1 138.91
set 		group Zr charge 4.00
mass		2 91.224
set		group O charge -2.00
mass		3 15.999
set		group Li charge 1.00
mass		4 6.941
kspace_style	ewald  1.0e-5
pair_style      buck/coul/long 8.0
pair_coeff      * *     0.00  0.100000  0.000000
pair_coeff      1 3 5436.827  0.293900  0.000000
pair_coeff	2 3 7290.347  0.261000  0.000000
pair_coeff	3 3   25.410  0.693700 32.320000
pair_coeff	3 4  426.480  0.300000  0.000000


thermo		100

velocity all create ${temp} 23
fix 1 all nvt temp ${temp} ${temp} 100
variable myTime equal step*dt
compute mymsd Li msd com yes

variable compmsd equal c_mymsd[4]
fix prinmsd all print 800 "${myTime} ${compmsd}" file msd_${temp}.txt screen no


run 3000
#dump            LMC all custom 10000 LLZ_*.lmc type x y z
#min_style       cg
#minimize        1e-9  1e-7  1000    10000
