clear
variable dump_file string "None"
variable data_file string "LLZ.lmp"
atom_style charge
units metal 
boundary p p p 
atom_modify sort 0 0.0 

read_data LLZ.lmp

### interactions 
pair_style buck/coul/long 8.0 
pair_coeff * *     0.00  0.100000  0.000000 
pair_coeff 1 3 5436.827  0.293900  0.000000 
pair_coeff 2 3 7290.347  0.261000  0.000000 
pair_coeff 3 3   25.410  0.693700 32.320000 
pair_coeff 3 4  426.480  0.300000  0.000000 
velocity all create 1073 23
fix 1 all nvt temp 1073 1073 100
variable myTime equal step*dt
compute mymsd all msd com yes
variable compmsd equal c_mymsd[4]
fix prinmsd all print 800 "${myTime} ${compmsd}" file msd_1073.txt screen no
run 3000
print "__end_of_ase_invoked_calculation__"
log /dev/stdout
