### LAMMPS Input Feb 25 2014 Sneha Akhade ###

## LiLaZrO garnet - Bush+Woodley rigid ion potential

# Initiation
units           metal
atom_style      charge
boundary        p p p
read_data	LLZ.lmp

# Atom definition
group		La type 1
group		Zr type 2
group		O  type 3
group		Li type 4



# Interatomic potential
kspace_style	ewald  1.0e-5
pair_style      buck/coul/long 8.0

pair_coeff      * *     0.00  0.100000  0.000000
pair_coeff      1 3 5436.827  0.293900  0.000000
pair_coeff	2 3 7290.347  0.261000  0.000000
pair_coeff	3 3   25.410  0.693700 32.320000
pair_coeff	3 4  426.480  0.300000  0.000000

# Simulation parameters (set Tdamp~30-50 for T < 500 K)
fix             1 all nvt temp 1700 1700 100
compute         msd all msd
compute         msdLi Li msd
compute         msdLa La msd
compute         msdZr Zr msd
compute         msdO O msd

thermo		200
thermo_style    custom step time temp etotal press c_msd[4] c_msdLi[4] c_msdLa[4] c_msdZr[4] c_msdO[4]
dump            1 all custom 200 xyz.dat id type x y z
dump            2 all custom 200 velocity.dat id type vx vy vz
dump            3 all custom 200 forces.dat id type fx fy fz

# Run simulation (dt = 1 fs, t = 10 ns)
timestep        0.001
run             20000
